c WARNING: for repeatability, setting FPU to use double precision
d VARIABLES            140866       
d CONSTRAINTS          512628       
c ============================[ Problem Statistics ]=============================
c |                                                                             |
c |  Number of variables:        140866                                         |
c |  Number of clauses:          512628                                         |
c |  Parse time:                   0.09 s                                       |
c |                                                                             |
c ============================[ Search Statistics ]==============================
c | Conflicts |          ORIGINAL         |          LEARNT          | Progress |
c |           |    Vars  Clauses Literals |    Limit  Clauses Lit/Cl |          |
c ===============================================================================
c |       100 |  110690   434406  1091027 |   159282       99     40 | 21.422 % |
c |       250 |  110690   434406  1091027 |   175210      249     40 | 21.422 % |
c |       475 |  110690   434398  1091007 |   192731      474     24 | 21.422 % |
c |       812 |  110690   434398  1091007 |   212004      811     29 | 21.422 % |
c |      1318 |  110690   434398  1091007 |   233205     1317     87 | 21.422 % |
c |      2077 |  110690   434398  1091007 |   256525     2076     70 | 21.422 % |
c |      3216 |  110690   434398  1091007 |   282178     3215     99 | 21.422 % |
c |      4924 |  110690   434398  1091007 |   310395     4923     71 | 21.422 % |
c |      7486 |  110690   434398  1091007 |   341435     7485     70 | 21.422 % |
c |     11330 |  110690   434398  1091007 |   375579    11329     81 | 21.422 % |
c |     17096 |  110690   434398  1091007 |   413137    17095     83 | 21.422 % |
c |     25745 |  110690   434398  1091007 |   454450    25744     91 | 21.422 % |
c |     38719 |  110690   434398  1091007 |   499895    38718    114 | 21.422 % |
c |     58180 |  110690   434398  1091007 |   549885    58179    119 | 21.422 % |
c |     87372 |  110690   434398  1091007 |   604873    87371    134 | 21.422 % |
c |    131161 |  110690   434398  1091007 |   665361   131160    144 | 21.422 % |
c |    196845 |  110687   434386  1090977 |   731897   196840    151 | 21.424 % |
c |    295371 |  110687   434386  1090977 |   805087   295366    154 | 21.424 % |
c ===============================================================================
c restarts              : 748
c conflicts             : 306272         (2472 /sec)
c decisions             : 1237949        (0.00 % random) (9992 /sec)
c propagations          : 447988989      (3615738 /sec)
c conflict literals     : 46734282       (35.50 % deleted)
d RESTARTS             748
d FAILURES             306272       
d NODES                1237949      
d BACKTRACKS           1237949      
d PROPAGATIONS         447988989    
d NOGOODSIZE           152.59 
d MEMORY               265.00 
d TIME                 123.9 

s SATISFIABLE
